5
268 253 193  364
286 173 445  270
148 475 55  409
453 77 77  317
259 421 138  946
20
311 155 489  473 334
38 473 123  138 98
412 228 206  382 193
493 12 29  11 32
22 291 46  188 256
402 149 336  353 179
138 98 149  415 3
177 409 297  283 402
447 182 451  29 400
447 329 54  313 58
293 203 498  372 281
366 238 105  122 152
48 49 177  133 159
53 243 306  465 394
421 206 345  42 406
409 217 89  153 106
160 300 73  318 295
434 404 495  18 158
285 165 294  35 335
303 58 315  243 75
